NAME: random_50_4
TYPE: TSP
COMMENT: random_50_4
DIMENSION: 50
EDGE_WEIGHT_TYPE: EUC_2D
NODE_COORD_SECTION
1 234 203
2 498 496
3 159 387
4 428 125
5 46 346
6 241 130
7 123 185
8 150 205
9 421 254
10 180 346
11 233 8
12 495 371
13 446 70
14 237 276
15 384 99
16 453 282
17 479 262
18 357 29
19 383 247
20 153 298
21 339 351
22 217 33
23 269 171
24 270 167
25 309 37
26 245 188
27 74 302
28 82 475
29 454 153
30 296 158
31 347 291
32 72 134
33 70 439
34 288 66
35 135 339
36 95 95
37 177 486
38 70 16
39 187 459
40 281 328
41 184 486
42 448 36
43 87 206
44 293 72
45 191 69
46 146 263
47 254 329
48 155 397
49 190 349
50 212 37
